\* Problem: Unknown *\

Maximize
 obj: + xp_0_0 + xp_1_0 + xp_1_1 + xp_2_0 + xp_2_1 + xp_3_0 + xp_3_1
 + xp_4_0 + xp_5_0 + xp_6_0 + xp_7_0 + xp_8_0 + xp_9_0 + xp_9_1
 + xp_10_0 + xp_11_0 + xp_11_1 + xp_12_0 + xp_12_1 + xp_13_0 + xp_13_1
 + xp_14_0 + xp_14_1 + xp_15_0 + xp_16_0 + xp_17_0 + xp_17_1 + xp_18_0
 + xp_18_1 + xp_18_2 + xp_19_0 + xp_19_1 + xp_20_0 + xp_21_0 + xp_22_0
 + xp_22_1 + xp_23_0 + xp_24_0 + xp_24_1 + xp_24_2 + xp_25_0 + xp_26_0
 + xp_27_0 + xp_28_0 + xp_28_1 + xp_29_0 + xp_30_0 + xp_30_1 + xp_31_0
 + xp_32_0 + xp_32_1 + xp_32_2 + xp_33_0 + xp_34_0 + xp_34_1 + xp_35_0
 + xp_36_0 + xp_37_0 + xp_38_0 + xp_38_1 + xp_39_0 + xp_40_0 + xp_40_1
 + xp_40_2 + xp_41_0 + xp_42_0 + xp_42_1 + xp_42_2 + xp_43_0 + xp_44_0
 + xp_45_0 + xp_46_0 + xp_46_1 + xp_47_0 + xp_48_0 + xp_48_1 + xp_49_0
 + xp_50_0 + xp_50_1 + xp_51_0 + xp_52_0 + xp_53_0 + xp_53_1 + xp_54_0
 + xp_55_0 + xp_56_0 + xp_57_0 + xp_58_0 + xp_58_1 + xp_58_2 + xp_59_0
 + xp_60_0 + xp_60_1 + xp_61_0 + xp_61_1 + xp_62_0 + xp_63_0 + xp_63_1
 + xp_64_0 + xp_65_0 + xp_65_1 + xp_66_0 + xp_67_0 + xp_67_1 + xp_68_0
 + xp_68_1 + xp_68_2 + xp_69_0 + xp_70_0 + xp_71_0 + xp_72_0 + xp_73_0
 + xp_74_0 + xp_74_1 + xp_75_0 + xp_76_0 + xp_77_0 + xp_77_1 + xp_78_0
 + xp_78_1 + xp_78_2 + xp_78_3 + xp_78_4 + xp_79_0 + xp_79_1 + xp_79_2
 + xp_80_0 + xp_80_1 + xp_81_0 + xp_81_1 + xp_82_0 + xp_82_1 + xp_83_0
 + xp_84_0 + xp_85_0 + xp_85_1 + xp_85_2 + xp_86_0 + xp_86_1 + xp_86_2
 + xp_87_0 + xp_88_0 + xp_89_0 + xp_89_1 + xp_90_0 + xp_90_1 + xp_90_2
 + xp_91_0 + xp_91_1 + xp_92_0 + xp_93_0 + xp_94_0 + xp_94_1 + xp_95_0
 + xp_95_1 + xp_96_0 + xp_96_1 + xp_97_0 + xp_98_0 + xp_98_1 + xp_99_0
 + xp_100_0 + xp_101_0 + xp_102_0 + xp_103_0 + xp_104_0 + xp_105_0
 + xp_105_1 + xp_106_0 + xp_107_0 + xp_108_0 + xp_108_1 + xp_108_2
 + xp_109_0 + xp_109_1 + xp_110_0 + xp_111_0 + xp_111_1 + xp_112_0
 + xp_112_1 + xp_112_2 + xp_113_0 + xp_114_0 + xp_115_0 + xp_115_1
 + xp_116_0 + xp_116_1 + xp_117_0 + xp_118_0 + xp_119_0 + xp_120_0
 + xp_120_1 + xp_120_2 + xp_121_0 + xp_122_0 + xp_123_0 + xp_124_0
 + xp_125_0 + xp_125_1 + xp_126_0 + xp_126_1 + xp_126_2 + xp_126_3
 + xp_126_4 + xp_127_0 + xp_127_1 + xp_128_0 + xp_128_1 + xp_128_2
 + xp_129_0 + xp_129_1 + xp_130_0 + xp_131_0 + xp_131_1 + xp_131_2

Subject To
 r_1: + xp_128_2 + xp_128_1 + xp_122_0 + xp_121_0 + xp_108_2 + xp_107_0
 + xp_78_3 + xp_67_1 + xp_46_1 + xp_40_2 + xp_40_1 + xp_25_0 + xp_22_1
 + xp_18_2 + xp_18_0 + xp_16_0 + xp_13_1 + xp_4_0 <= 39177.1539206196
 r_2: + xp_131_2 + xp_131_1 + xp_127_1 + xp_126_1 + xp_120_2 + xp_120_0
 + xp_94_1 + xp_93_0 + xp_90_1 + xp_89_1 + xp_85_2 + xp_85_1 + xp_85_0
 + xp_77_1 + xp_75_0 + xp_74_1 + xp_71_0 + xp_66_0 + xp_65_1 + xp_65_0
 + xp_61_1 + xp_55_0 + xp_52_0 + xp_48_1 + xp_48_0 + xp_42_2 + xp_42_1
 + xp_38_1 + xp_32_2 + xp_32_1 + xp_32_0 + xp_28_1 + xp_28_0 + xp_24_2
 + xp_24_0 + xp_19_1 + xp_19_0 + xp_12_1 + xp_1_1 <= 34975.3694581281
 r_3: + xp_126_4 + xp_114_0 + xp_105_1 + xp_95_0 + xp_79_2 + xp_76_0
 + xp_68_2 + xp_58_1 + xp_48_1 + xp_34_0 + xp_32_1 <= 38762.5113739763
 r_4: + xp_117_0 + xp_95_1 + xp_91_1 + xp_91_0 + xp_84_0 + xp_79_1
 + xp_79_0 + xp_78_4 + xp_46_1 + xp_46_0 + xp_43_0 + xp_40_2 + xp_40_1
 + xp_40_0 + xp_34_1 <= 36378.8140472078
 r_5: + xp_130_0 + xp_99_0 + xp_86_0 + xp_78_4 + xp_7_0 + xp_2_0
 <= 38762.5113739763
 r_6: + xp_126_4 + xp_126_2 + xp_119_0 + xp_114_0 + xp_95_0 + xp_83_0
 + xp_82_1 + xp_81_0 + xp_79_2 + xp_70_0 + xp_68_2 + xp_68_1 + xp_58_1
 + xp_53_0 + xp_48_1 + xp_45_0 + xp_34_0 + xp_32_2 + xp_32_1 + xp_30_1
 + xp_18_0 <= 38635.1471900089
 r_7: + xp_112_2 + xp_112_1 + xp_111_1 + xp_104_0 + xp_88_0 + xp_82_0
 + xp_81_1 + xp_78_2 + xp_53_1 + xp_50_1 + xp_44_0 + xp_27_0 + xp_18_2
 + xp_18_1 + xp_3_1 <= 36378.8140472078
 r_8: + xp_131_2 + xp_131_1 + xp_127_1 + xp_126_1 + xp_120_2 + xp_120_0
 + xp_118_0 + xp_103_0 + xp_94_1 + xp_90_1 + xp_89_1 + xp_77_1 + xp_74_1
 + xp_71_0 + xp_61_1 + xp_55_0 + xp_42_2 + xp_42_1 + xp_38_1 + xp_32_2
 + xp_32_1 + xp_32_0 + xp_24_2 + xp_24_0 + xp_12_1 + xp_1_1
 <= 39177.1539206196
 r_9: + xp_131_0 + xp_127_0 + xp_122_0 + xp_120_1 + xp_108_2 + xp_78_3
 + xp_77_0 + xp_67_1 + xp_46_1 + xp_42_0 + xp_33_0 + xp_24_1
 <= 39648.3971044467
 r_10: + xp_112_2 + xp_112_1 + xp_111_1 + xp_106_0 + xp_99_0 + xp_98_0
 + xp_94_1 + xp_88_0 + xp_86_0 + xp_85_0 + xp_78_4 + xp_78_2 + xp_50_1
 + xp_26_0 + xp_24_0 + xp_8_0 + xp_7_0 + xp_3_1 + xp_2_0
 <= 38635.1471900089
 r_11: + xp_119_0 + xp_112_0 + xp_111_0 + xp_95_0 + xp_82_1 + xp_81_0
 + xp_79_2 + xp_78_3 + xp_78_1 + xp_78_0 + xp_59_0 + xp_53_0 + xp_50_0
 + xp_49_0 + xp_45_0 + xp_34_0 + xp_18_0 + xp_4_0 + xp_3_0
 <= 36088.8175494917
 r_12: + xp_129_0 + xp_128_2 + xp_128_0 + xp_123_0 + xp_117_0 + xp_112_1
 + xp_111_1 + xp_108_1 + xp_101_0 + xp_91_1 + xp_82_0 + xp_81_1
 + xp_80_1 + xp_79_1 + xp_78_4 + xp_78_2 + xp_78_0 + xp_73_0 + xp_63_1
 + xp_60_0 + xp_50_1 + xp_46_0 + xp_44_0 + xp_40_1 + xp_40_0 + xp_18_2
 + xp_18_1 + xp_17_1 + xp_15_0 + xp_14_1 + xp_13_0 + xp_9_0
 <= 35917.2202350537
 r_13: + xp_129_1 + xp_128_1 + xp_126_3 + xp_120_2 + xp_120_1 + xp_112_2
 + xp_109_1 + xp_100_0 + xp_96_1 + xp_95_1 + xp_91_0 + xp_90_0 + xp_80_0
 + xp_79_0 + xp_68_0 + xp_63_0 + xp_60_1 + xp_58_2 + xp_53_1 + xp_46_1
 + xp_40_2 + xp_34_1 + xp_31_0 + xp_30_0 + xp_17_0 + xp_13_1 + xp_9_1
 <= 36088.8175494917
 r_14: + xp_131_2 + xp_131_1 + xp_131_0 + xp_126_4 + xp_126_2 + xp_125_1
 + xp_125_0 + xp_124_0 + xp_115_1 + xp_115_0 + xp_98_1 + xp_94_0
 + xp_86_2 + xp_86_1 + xp_85_2 + xp_85_1 + xp_77_1 + xp_77_0 + xp_68_2
 + xp_68_1 + xp_65_1 + xp_65_0 + xp_58_1 + xp_56_0 + xp_51_0 + xp_48_1
 + xp_41_0 + xp_38_1 + xp_38_0 + xp_35_0 + xp_32_2 + xp_32_1 + xp_30_1
 + xp_24_2 + xp_24_1 + xp_20_0 + xp_19_1 + xp_19_0 + xp_12_1 + xp_12_0
 + xp_2_1 + xp_0_0 <= 36378.8140472078
 r_15: + xp_131_2 + xp_131_0 + xp_126_4 + xp_126_3 + xp_126_2 + xp_125_0
 + xp_124_0 + xp_120_2 + xp_120_1 + xp_116_0 + xp_115_0 + xp_109_1
 + xp_98_1 + xp_96_1 + xp_94_0 + xp_90_0 + xp_89_1 + xp_89_0 + xp_86_1
 + xp_85_1 + xp_77_1 + xp_77_0 + xp_68_2 + xp_68_1 + xp_68_0 + xp_65_0
 + xp_58_2 + xp_58_1 + xp_51_0 + xp_48_1 + xp_42_1 + xp_42_0 + xp_38_0
 + xp_36_0 + xp_32_2 + xp_32_1 + xp_28_1 + xp_24_1 + xp_19_1 + xp_12_0
 + xp_11_0 + xp_0_0 <= 35917.2202350537
 r_16: + xp_128_0 + xp_123_0 + xp_108_1 + xp_108_0 + xp_78_4 + xp_78_2
 + xp_78_1 + xp_78_0 + xp_73_0 + xp_67_0 + xp_57_0 + xp_46_0 + xp_44_0
 + xp_40_0 + xp_22_0 + xp_18_1 + xp_13_0 + xp_6_0 <= 39648.3971044467
 r_17: + xp_129_0 + xp_128_2 + xp_126_0 + xp_112_1 + xp_111_1 + xp_109_0
 + xp_97_0 + xp_91_1 + xp_90_2 + xp_81_1 + xp_80_1 + xp_79_1 + xp_63_1
 + xp_62_0 + xp_61_0 + xp_60_0 + xp_47_0 + xp_40_1 + xp_22_1 + xp_18_2
 + xp_17_1 + xp_9_0 + xp_1_0 <= 34975.3694581281
 r_18: + xp_126_3 + xp_126_1 + xp_126_0 + xp_106_0 + xp_99_0 + xp_98_0
 + xp_94_1 + xp_92_0 + xp_86_0 + xp_85_0 + xp_68_0 + xp_58_2 + xp_58_0
 + xp_48_0 + xp_32_0 + xp_30_0 + xp_26_0 + xp_24_0 + xp_5_0 + xp_2_0
 <= 36088.8175494917
 r_19: + xp_131_1 + xp_125_1 + xp_116_1 + xp_115_1 + xp_110_0 + xp_108_1
 + xp_86_2 + xp_85_2 + xp_78_0 + xp_65_1 + xp_56_0 + xp_42_2 + xp_38_1
 + xp_28_0 + xp_24_2 + xp_19_0 + xp_14_1 + xp_12_1 + xp_11_1 + xp_3_0
 + xp_2_1 <= 36088.8175494917
 r_20: + xp_129_1 + xp_128_1 + xp_119_0 + xp_112_2 + xp_112_0 + xp_111_0
 + xp_108_2 + xp_108_0 + xp_107_0 + xp_95_1 + xp_95_0 + xp_91_0
 + xp_82_1 + xp_81_0 + xp_80_0 + xp_79_2 + xp_79_0 + xp_78_3 + xp_78_1
 + xp_69_0 + xp_64_0 + xp_63_0 + xp_60_1 + xp_50_0 + xp_49_0 + xp_46_1
 + xp_45_0 + xp_40_2 + xp_18_0 + xp_17_0 + xp_14_0 + xp_13_1 + xp_10_0
 + xp_9_1 + xp_4_0 <= 34975.3694581281
 r_21: + xp_126_4 + xp_113_0 + xp_105_1 + xp_86_2 + xp_86_1 + xp_77_1
 + xp_77_0 + xp_68_2 + xp_65_1 + xp_65_0 + xp_58_1 + xp_48_1 + xp_38_1
 + xp_38_0 + xp_32_1 + xp_20_0 + xp_2_1 + xp_0_0 <= 36378.8140472078
 r_22: + xp_126_2 + xp_124_0 + xp_105_0 + xp_98_1 + xp_94_0 + xp_85_2
 + xp_85_1 + xp_83_0 + xp_68_1 + xp_41_0 + xp_32_2 + xp_30_1 + xp_24_2
 + xp_24_1 <= 36378.8140472078
 r_23: + xp_128_2 + xp_128_1 + xp_128_0 + xp_117_0 + xp_112_2 + xp_112_1
 + xp_111_1 + xp_104_0 + xp_100_0 + xp_95_1 + xp_91_1 + xp_91_0
 + xp_84_0 + xp_82_0 + xp_81_1 + xp_80_1 + xp_80_0 + xp_79_1 + xp_79_0
 + xp_78_4 + xp_78_2 + xp_73_0 + xp_60_1 + xp_60_0 + xp_53_1 + xp_50_1
 + xp_46_1 + xp_46_0 + xp_44_0 + xp_40_2 + xp_40_1 + xp_40_0 + xp_34_1
 + xp_21_0 + xp_18_2 + xp_18_1 + xp_15_0 + xp_9_1 + xp_9_0 + xp_3_1
 <= 36378.8140472078
 r_24: + xp_128_0 + xp_126_1 + xp_103_0 + xp_94_1 + xp_90_1 + xp_89_1
 + xp_74_1 + xp_61_1 + xp_40_0 + xp_39_0 + xp_38_1 + xp_22_0 + xp_18_1
 + xp_13_0 + xp_12_1 + xp_1_1 <= 39648.3971044467
 r_25: + xp_131_0 + xp_127_0 + xp_126_4 + xp_126_3 + xp_126_2 + xp_126_0
 + xp_120_1 + xp_94_0 + xp_90_2 + xp_90_0 + xp_89_0 + xp_77_0 + xp_74_0
 + xp_61_0 + xp_42_0 + xp_38_0 + xp_24_1 + xp_12_0 + xp_1_0
 <= 39648.3971044467
 r_26: + xp_128_2 + xp_128_1 + xp_121_0 + xp_112_2 + xp_112_1 + xp_112_0
 + xp_108_2 + xp_107_0 + xp_81_1 + xp_81_0 + xp_79_2 + xp_79_1 + xp_79_0
 + xp_78_3 + xp_67_1 + xp_64_0 + xp_60_1 + xp_60_0 + xp_47_0 + xp_46_1
 + xp_40_2 + xp_40_1 + xp_37_0 + xp_29_0 + xp_25_0 + xp_22_1 + xp_18_2
 + xp_18_0 + xp_17_1 + xp_17_0 + xp_13_1 + xp_4_0 <= 34975.3694581281
 r_27: + xp_131_2 + xp_127_1 + xp_125_0 + xp_120_2 + xp_116_0 + xp_115_0
 + xp_108_0 + xp_98_1 + xp_96_1 + xp_89_1 + xp_86_1 + xp_85_1 + xp_82_1
 + xp_78_1 + xp_77_1 + xp_74_1 + xp_72_0 + xp_67_0 + xp_65_0 + xp_58_2
 + xp_58_1 + xp_57_0 + xp_52_0 + xp_50_0 + xp_48_1 + xp_42_1 + xp_32_2
 + xp_32_1 + xp_28_1 + xp_23_0 + xp_19_1 + xp_14_0 + xp_11_0
 <= 34975.3694581281
 r_28: + xp_131_1 + xp_126_1 + xp_126_0 + xp_125_1 + xp_120_0 + xp_116_1
 + xp_115_1 + xp_109_0 + xp_99_0 + xp_98_0 + xp_96_0 + xp_94_1 + xp_92_0
 + xp_90_2 + xp_90_1 + xp_86_2 + xp_86_0 + xp_85_2 + xp_85_0 + xp_75_0
 + xp_65_1 + xp_58_0 + xp_54_0 + xp_48_0 + xp_42_2 + xp_38_1 + xp_32_0
 + xp_28_0 + xp_26_0 + xp_24_2 + xp_24_0 + xp_19_0 + xp_12_1 + xp_11_1
 <= 34975.3694581281
 r_29: + xp_129_1 + xp_129_0 + xp_95_1 + xp_95_0 + xp_93_0 + xp_87_0
 + xp_71_0 + xp_62_0 + xp_49_0 + xp_45_0 + xp_10_0 + xp_9_1 + xp_9_0
 + xp_1_1 + xp_1_0 <= 34975.3694581281
 r_30: + xp_125_1 + xp_125_0 + xp_121_0 + xp_102_0 + xp_99_0 + xp_96_1
 + xp_96_0 + xp_92_0 + xp_57_0 + xp_37_0 + xp_26_0 + xp_23_0 + xp_11_1
 + xp_11_0 <= 34975.3694581281

Bounds
 0 <= xp_0_0 <= 235.396509819346
 0 <= xp_1_0 <= 149.020695525554
 0 <= xp_1_1 <= 33.1157101167897
 0 <= xp_2_0 <= 104.308509302884
 0 <= xp_2_1 <= 10.4308509302884
 0 <= xp_3_0 <= 148.805503185444
 0 <= xp_3_1 <= 33.0678895967654
 0 <= xp_4_0 <= 787.000230734009
 0 <= xp_5_0 <= 1080.78559550296
 0 <= xp_6_0 <= 1787.63265711133
 0 <= xp_7_0 <= 636.754134382834
 0 <= xp_8_0 <= 1506.14314355361
 0 <= xp_9_0 <= 58.8909704098577
 0 <= xp_9_1 <= 49.0758086748814
 0 <= xp_10_0 <= 54.7066749077363
 0 <= xp_11_0 <= 26.3610616633651
 0 <= xp_11_1 <= 15.0634638076372
 0 <= xp_12_0 <= 1687.26934071045
 0 <= xp_12_1 <= 374.948742380099
 0 <= xp_13_0 <= 205.670079059275
 0 <= xp_13_1 <= 45.7044620131722
 0 <= xp_14_0 <= 119.682806490679
 0 <= xp_14_1 <= 99.735672075566
 0 <= xp_15_0 <= 505.905236466494
 0 <= xp_16_0 <= 2634.66557317078
 0 <= xp_17_0 <= 134.704427343295
 0 <= xp_17_1 <= 161.645312811954
 0 <= xp_18_0 <= 162.798982857539
 0 <= xp_18_1 <= 162.798982857539
 0 <= xp_18_2 <= 32.5597965715078
 0 <= xp_19_0 <= 480.058245393389
 0 <= xp_19_1 <= 576.069894472067
 0 <= xp_20_0 <= 127.955756454874
 0 <= xp_21_0 <= 273.862140613848
 0 <= xp_22_0 <= 558.752888658288
 0 <= xp_22_1 <= 670.503466389945
 0 <= xp_23_0 <= 51.8792866613028
 0 <= xp_24_0 <= 185.388201003992
 0 <= xp_24_1 <= 123.592134002661
 0 <= xp_24_2 <= 30.8980335006653
 0 <= xp_25_0 <= 577.510487637798
 0 <= xp_26_0 <= 15.3204991027675
 0 <= xp_27_0 <= 337.182486690952
 0 <= xp_28_0 <= 363.316400884201
 0 <= xp_28_1 <= 302.763667403501
 0 <= xp_29_0 <= 2442.73193848846
 0 <= xp_30_0 <= 166.355634034342
 0 <= xp_30_1 <= 16.6355634034342
 0 <= xp_31_0 <= 190.224051091444
 0 <= xp_32_0 <= 1838.11917112693
 0 <= xp_32_1 <= 204.235463458547
 0 <= xp_32_2 <= 204.235463458547
 0 <= xp_33_0 <= 8043.393535383
 0 <= xp_34_0 <= 185.400156133998
 0 <= xp_34_1 <= 324.450273234496
 0 <= xp_35_0 <= 260.514237962081
 0 <= xp_36_0 <= 318.311313976384
 0 <= xp_37_0 <= 364.141304854619
 0 <= xp_38_0 <= 303.779853454016
 0 <= xp_38_1 <= 30.3779853454016
 0 <= xp_39_0 <= 1570.31828142615
 0 <= xp_40_0 <= 385.224176620309
 0 <= xp_40_1 <= 231.134505972185
 0 <= xp_40_2 <= 231.134505972185
 0 <= xp_41_0 <= 79.7586498354376
 0 <= xp_42_0 <= 329.674665047145
 0 <= xp_42_1 <= 82.4186662617863
 0 <= xp_42_2 <= 41.2093331308931
 0 <= xp_43_0 <= 491.110763083993
 0 <= xp_44_0 <= 457.708129847058
 0 <= xp_45_0 <= 42.4765769115356
 0 <= xp_46_0 <= 1456.79236688859
 0 <= xp_46_1 <= 145.679236688859
 0 <= xp_47_0 <= 877.279394974781
 0 <= xp_48_0 <= 2637.24190368708
 0 <= xp_48_1 <= 263.724190368708
 0 <= xp_49_0 <= 87.9120484995714
 0 <= xp_50_0 <= 427.013333556496
 0 <= xp_50_1 <= 355.844444630413
 0 <= xp_51_0 <= 708.227879124071
 0 <= xp_52_0 <= 661.148577160202
 0 <= xp_53_0 <= 172.333199037373
 0 <= xp_53_1 <= 17.2333199037373
 0 <= xp_54_0 <= 3686.5855072741
 0 <= xp_55_0 <= 1182.96609166476
 0 <= xp_56_0 <= 95.6051746584718
 0 <= xp_57_0 <= 205.676056624278
 0 <= xp_58_0 <= 3300.38100999329
 0 <= xp_58_1 <= 825.095252498323
 0 <= xp_58_2 <= 412.547626249162
 0 <= xp_59_0 <= 10624.4702383016
 0 <= xp_60_0 <= 369.054863287111
 0 <= xp_60_1 <= 307.545719405926
 0 <= xp_61_0 <= 1756.78244413069
 0 <= xp_61_1 <= 658.793416549008
 0 <= xp_62_0 <= 130.980404346407
 0 <= xp_63_0 <= 95.6888605685142
 0 <= xp_63_1 <= 35.8833227131928
 0 <= xp_64_0 <= 992.54478092822
 0 <= xp_65_0 <= 426.618814266296
 0 <= xp_65_1 <= 94.8041809480657
 0 <= xp_66_0 <= 1676.90424299519
 0 <= xp_67_0 <= 330.427838237527
 0 <= xp_67_1 <= 73.4284084972282
 0 <= xp_68_0 <= 534.776875431132
 0 <= xp_68_1 <= 802.165313146698
 0 <= xp_68_2 <= 133.694218857783
 0 <= xp_69_0 <= 1715.43562700473
 0 <= xp_70_0 <= 630.507578954667
 0 <= xp_71_0 <= 70.7504593758705
 0 <= xp_72_0 <= 597.959737513165
 0 <= xp_73_0 <= 921.334049047116
 0 <= xp_74_0 <= 865.013431588562
 0 <= xp_74_1 <= 86.5013431588562
 0 <= xp_75_0 <= 1760.80534537773
 0 <= xp_76_0 <= 1718.98630061653
 0 <= xp_77_0 <= 415.369036930592
 0 <= xp_77_1 <= 155.763388848972
 0 <= xp_78_0 <= 2540.27982177292
 0 <= xp_78_1 <= 2540.27982177292
 0 <= xp_78_2 <= 12701.3991088646
 0 <= xp_78_3 <= 7620.83946531877
 0 <= xp_78_4 <= 2540.27982177292
 0 <= xp_79_0 <= 580.230279714177
 0 <= xp_79_1 <= 386.820186476118
 0 <= xp_79_2 <= 96.7050466190294
 0 <= xp_80_0 <= 143.270277992638
 0 <= xp_80_1 <= 81.8687302815074
 0 <= xp_81_0 <= 213.148012878066
 0 <= xp_81_1 <= 47.3662250840147
 0 <= xp_82_0 <= 199.531119801162
 0 <= xp_82_1 <= 19.9531119801162
 0 <= xp_83_0 <= 503.143601435094
 0 <= xp_84_0 <= 888.786207605614
 0 <= xp_85_0 <= 185.513729869055
 0 <= xp_85_1 <= 185.513729869055
 0 <= xp_85_2 <= 37.1027459738111
 0 <= xp_86_0 <= 77.8278963394587
 0 <= xp_86_1 <= 77.8278963394587
 0 <= xp_86_2 <= 15.5655792678917
 0 <= xp_87_0 <= 141.106399461541
 0 <= xp_88_0 <= 424.700015900323
 0 <= xp_89_0 <= 2016.47177812235
 0 <= xp_89_1 <= 201.647177812235
 0 <= xp_90_0 <= 9853.20893622058
 0 <= xp_90_1 <= 9853.20893622058
 0 <= xp_90_2 <= 1970.64178724412
 0 <= xp_91_0 <= 1482.6393579617
 0 <= xp_91_1 <= 1235.53279830141
 0 <= xp_92_0 <= 66.8052664738702
 0 <= xp_93_0 <= 130.322872196074
 0 <= xp_94_0 <= 215.311891409163
 0 <= xp_94_1 <= 21.5311891409163
 0 <= xp_95_0 <= 55.7109058282454
 0 <= xp_95_1 <= 5.57109058282454
 0 <= xp_96_0 <= 94.3618411378414
 0 <= xp_96_1 <= 20.9692980306314
 0 <= xp_97_0 <= 527.077771707228
 0 <= xp_98_0 <= 103.961810532709
 0 <= xp_98_1 <= 38.9856789497657
 0 <= xp_99_0 <= 16.3725505433009
 0 <= xp_100_0 <= 502.946341789994
 0 <= xp_101_0 <= 249.86221712668
 0 <= xp_102_0 <= 74.958665138004
 0 <= xp_103_0 <= 1439.73239636994
 0 <= xp_104_0 <= 131.900949356874
 0 <= xp_105_0 <= 1318.05308316825
 0 <= xp_105_1 <= 131.805308316825
 0 <= xp_106_0 <= 41.4245254710022
 0 <= xp_107_0 <= 449.751990828024
 0 <= xp_108_0 <= 308.753187536538
 0 <= xp_108_1 <= 231.564890652403
 0 <= xp_108_2 <= 308.753187536538
 0 <= xp_109_0 <= 439.410803372781
 0 <= xp_109_1 <= 527.292964047337
 0 <= xp_110_0 <= 133.216013657541
 0 <= xp_111_0 <= 2393.15401435333
 0 <= xp_111_1 <= 531.812003189629
 0 <= xp_112_0 <= 3830.26225968694
 0 <= xp_112_1 <= 425.584695520771
 0 <= xp_112_2 <= 425.584695520771
 0 <= xp_113_0 <= 425.42330126569
 0 <= xp_114_0 <= 2397.88824583573
 0 <= xp_115_0 <= 160.676947281463
 0 <= xp_115_1 <= 60.2538552305487
 0 <= xp_116_0 <= 116.156043138891
 0 <= xp_116_1 <= 43.5585161770842
 0 <= xp_117_0 <= 1943.33627031027
 0 <= xp_118_0 <= 3154.8392572995
 0 <= xp_119_0 <= 62.7943203568367
 0 <= xp_120_0 <= 1380.73382979003
 0 <= xp_120_1 <= 591.743069910014
 0 <= xp_120_2 <= 197.247689970005
 0 <= xp_121_0 <= 75.550444073304
 0 <= xp_122_0 <= 2274.86398050836
 0 <= xp_123_0 <= 513.861375485528
 0 <= xp_124_0 <= 137.687232279807
 0 <= xp_125_0 <= 17.364826333804
 0 <= xp_125_1 <= 9.92275790503084
 0 <= xp_126_0 <= 2307.28629308479
 0 <= xp_126_1 <= 6921.85887925438
 0 <= xp_126_2 <= 9229.14517233917
 0 <= xp_126_3 <= 4614.57258616959
 0 <= xp_126_4 <= 2307.28629308479
 0 <= xp_127_0 <= 262.205888857938
 0 <= xp_127_1 <= 314.647066629526
 0 <= xp_128_0 <= 221.540514142321
 0 <= xp_128_1 <= 147.693676094881
 0 <= xp_128_2 <= 36.9234190237202
 0 <= xp_129_0 <= 17.8131437090313
 0 <= xp_129_1 <= 31.1730014908047
 0 <= xp_130_0 <= 403.658987089655
 0 <= xp_131_0 <= 209.400079621166
 0 <= xp_131_1 <= 349.000132701943
 0 <= xp_131_2 <= 209.400079621166

End
